c --- [ banner ] -------------------------------------------------------------
c 
c CaDiCaL Radically Simplified CDCL SAT Solver
c Copyright (c) 2016-2021 A. Biere, M. Fleury, N. Froleyks
c 
c Version 1.5.2 ca9bff05c11bde5eae4912f9932871d1527e61d8
c g++ (GCC) 9.3.0 -Wall -Wextra -O3 -DNDEBUG
c Sun May 1 02:23:23 EDT 2022 Linux gra-login1 3.10.0-1160.59.1.el7.x86_64 x86_64
c 
c --- [ limit ] --------------------------------------------------------------
c 
c setting conflict limit to 200000 conflicts (due to '200000')
c 
c --- [ parsing input ] ------------------------------------------------------
c 
c reading DIMACS file from '12.cubes197.adj'
c opening file to read '12.cubes197.adj'
c found 'p cnf 5320 924207' header
c parsed 924207 clauses in 8.65 seconds process time
c closing file '12.cubes197.adj'
c after reading 686668095 bytes 654.9 MB
c 
c --- [ options ] ------------------------------------------------------------
c 
c all options are set to their default value
c 
c --- [ solving ] ------------------------------------------------------------
c 
c time measured in process time since initialization
c 
c  seconds   reductions  redundant  irredundant
c          MB    restarts       trail      variables
c           level   conflicts       glue        remaining
c 
c *  8.65 689  0 0   0    0    0  0% 0 923580 3984 75%
c {  9.17 720  0 0   0    0    0  0% 0 923580 3984 75%
c i  9.29 722 141 0   0    6    5 40% 4 923580 3967 75%
c i  9.82 733 51 0   7   74   59 40% 5 923580 3950 74%
c i  9.84 733 49 0   7   77   60 40% 5 923580 3911 74%
c i 10.03 735 30 0  13  142   77 37% 6 923580 3910 73%
c i 10.05 735 30 0  14  145   79 38% 6 923580 3909 73%
c i 10.34 739 29 0  27  194  100 39% 8 923580 3908 73%
c i 10.36 739 29 0  29  198  103 40% 8 923580 3907 73%
c i 10.56 740 31 0  38  239  136 41% 9 923580 3906 73%
c i 10.57 740 31 0  39  240  136 41% 9 923580 3905 73%
c i 10.59 740 31 0  39  244  139 41% 10 923580 3895 73%
c i 10.59 740 31 0  40  245  139 42% 10 923580 3894 73%
c i 10.61 740 31 0  40  251  144 42% 10 923580 3885 73%
c i 10.66 740 30 0  43  272  160 42% 10 923580 3884 73%
c i 10.68 740 30 0  45  276  163 42% 10 923580 3883 73%
c - 12.61 692 30 1  50  300  172 43% 11 101731 3883 73%
c i 12.77 692 24 1  54  429  245 44% 10 101731 3882 73%
c i 12.77 692 24 1  54  430  245 44% 10 101731 3881 73%
c i 12.78 692 24 1  54  439  250 44% 10 101731 3880 73%
c 
c  seconds   reductions  redundant   irredundant
c          MB    restarts       trail       variables
c           level   conflicts       glue         remaining
c 
c i 12.78 692 24 1  54  444  254 44% 10 101731 3879 73%
c i 12.79 692 24 1  54  448  257 45% 10 101731 3878 73%
c i 12.79 692 24 1  54  451  259 45% 10 101731 3877 73%
c i 12.87 692 24 1  59  469  273 45% 10 101731 3876 73%
c i 12.96 692 27 1  68  504  303 46% 11 101731 3875 73%
c i 12.97 692 27 1  69  510  307 46% 12 101731 3874 73%
c i 13.04 692 28 1  75  543  334 46% 12 101731 3873 73%
c i 13.04 692 28 1  76  544  334 46% 12 101731 3872 73%
c i 13.04 692 28 1  76  545  334 46% 12 101731 3871 73%
c i 13.04 692 28 1  76  546  334 46% 12 101731 3870 73%
c i 13.26 692 30 1 108  669  443 47% 14 101731 3869 73%
c i 13.28 692 30 1 110  673  446 47% 14 101731 3868 73%
c i 13.28 692 30 1 110  674  446 47% 14 101731 3867 73%
c i 13.37 692 30 1 116  722  480 47% 14 101731 3866 73%
c i 13.37 692 30 1 116  725  482 47% 14 101731 3865 73%
c i 13.39 692 30 1 116  731  487 47% 14 101731 3864 73%
c i 13.49 692 30 1 133  831  533 46% 14 101731 3863 73%
c i 13.49 692 30 1 133  833  534 46% 14 101731 3862 73%
c i 13.51 692 30 1 134  843  542 46% 14 101731 3861 73%
c i 13.54 692 32 1 139  866  560 46% 15 101731 3860 73%
c 
c  seconds   reductions  redundant   irredundant
c          MB    restarts       trail       variables
c           level   conflicts       glue         remaining
c 
c i 13.55 692 33 1 141  872  564 46% 15 101731 3859 73%
c i 13.56 692 33 1 146  894  578 47% 16 101731 3858 73%
c i 13.56 692 33 1 146  895  578 47% 16 101731 3857 72%
c i 13.56 692 33 1 147  896  578 47% 16 101731 3856 72%
c i 13.56 692 33 1 147  897  578 47% 16 101731 3855 72%
c - 13.69 724 33 2 149  904  526 47% 16 101650 3855 72%
c i 13.69 724 33 2 149  905  526 47% 16 101650 3854 72%
c i 13.69 724 33 2 150  907  527 47% 16 101650 3853 72%
c i 13.72 724 33 2 156  930  546 47% 16 101650 3852 72%
c i 13.72 724 33 2 157  931  546 47% 15 101650 3851 72%
c i 13.72 724 33 2 157  932  546 47% 15 101650 3850 72%
c i 13.72 724 32 2 158  954  567 47% 15 101650 3849 72%
c i 13.76 724 32 2 162  997  586 47% 15 101650 3848 72%
c i 13.76 724 32 2 162  998  586 47% 15 101650 3847 72%
c i 13.76 724 32 2 162  999  586 47% 15 101650 3846 72%
c } 13.76 724 32 2 162 1000  587 47% 15 101650 3846 72%
c [ 13.76 724  0 2 162 1000  587  0% 0 101650 3846 72%
c O 13.76 724 42 2 162 1002  589 37% 7 101650 3846 72%
c i 13.76 724  7 2 162 1027  596 36% 4 101650 3825 72%
c i 13.80 724 24 2 162 1112  650 49% 12 101650 3824 72%
c 
c  seconds   reductions  redundant   irredundant
c          MB    restarts       trail       variables
c           level   conflicts       glue         remaining
c 
c i 13.81 724 23 2 162 1139  664 50% 13 101650 3823 72%
c i 13.82 724 22 2 162 1153  672 51% 13 101650 3822 72%
c i 13.82 724 22 2 162 1155  672 51% 13 101650 3821 72%
c i 13.82 724 22 2 162 1168  680 51% 13 101650 3820 72%
c i 13.82 724 21 2 162 1194  695 52% 13 101650 3819 72%
c i 13.86 724 22 2 162 1318  759 51% 13 101650 3818 72%
c i 13.86 724 22 2 162 1319  759 51% 13 101650 3817 72%
c i 13.87 724 21 2 162 1352  784 52% 13 101650 3816 72%
c i 13.91 724 24 2 162 1541  918 53% 16 101650 3815 72%
c - 14.05 722 22 3 162 1810  856 53% 16 101302 3815 72%
c i 14.32 722 20 3 163 2995 1493 53% 15 101302 3814 72%
c i 14.32 722 20 3 163 2997 1494 53% 15 101302 3813 72%
c ] 14.33 722 20 3 163 3000 1497 53% 15 101302 3813 72%
c { 14.33 722 32 3 163 3000 1497 47% 15 101302 3813 72%
c F 14.40 717 32 3 163 3004 1501  7% 15 101297 3813 72%
c - 14.43 718 32 4 163 3017 1119 21% 15 101297 3813 72%
c i 14.78 718 22 4 183 4423 2101 32% 12 101297 3812 72%
c - 14.87 718 22 5 190 4525 1624 32% 12 101295 3812 72%
c i 14.88 718 23 5 197 4560 1650 32% 13 101295 3811 72%
c d 15.09 719 23 5 212 5002 1929 32% 13 101272 3801 71%
c 
c  seconds   reductions  redundant   irredundant
c          MB    restarts       trail       variables
c           level   conflicts       glue         remaining
c 
c 2 15.11 719 23 5 212 5002 3688 32% 13 101192 3782 71%
c p 15.63 719 23 5 212 5002 9824 32% 13 101192 3741 70%
c d 15.75 719 23 5 212 5002 9565 32% 13 100846 3739 70%
c # 16.16 719 23 5 320 6005 10102 30% 13 100844 3738 70%
c - 16.42 724 25 6 401 6336 2215 29% 14 100844 3738 70%
c } 16.58 724 24 6 417 7000 2610 29% 13 100844 3738 70%
c [ 16.58 724 20 6 417 7000 2610 74% 15 100844 3738 70%
c - 16.88 724 18 7 418 8444 2625 58% 14 100844 3738 70%
c I 17.14 724 18 7 419 10006 3600 50% 14 100844 3738 70%
c - 17.37 724 30 8 420 10853 3180 48% 22 100844 3738 70%
c - 18.14 724 47 9 422 13563 3875 43% 33 100844 3738 70%
c ] 18.56 724 51 9 422 15000 5065 42% 36 100844 3738 70%
c { 18.56 724 24 9 422 15000 5065 29% 13 100844 3738 70%
c 2 18.58 724 24 9 423 15007 6701 29% 13 100836 3738 70%
c p 18.96 724 24 9 423 15007 12032 29% 13 100836 3709 70%
c B 18.97 724 24 9 423 15008 12033 29% 13 100836 3709 70%
c s 19.31 724 24 9 491 15715 12195 29% 13 99145 3709 70%
c v 19.97 724 24 9 491 15715 12195 29% 13 98792 3709 70%
c t 20.00 724 24 9 491 15715 12185 29% 13 98722 3709 70%
c e 20.21 725 24 9 491 15715 6413 29% 13 92968 766 14%
c 
c  seconds   reductions   redundant   irredundant
c          MB    restarts        trail      variables
c           level    conflicts       glue       remaining
c 
c s 20.29 725 24 9 491 15715 6413 29% 13 92513 766 14%
c - 21.05 725 24 10 652 16573 4355 65% 14 92513 766 14%
c - 22.37 725 23 11 884 19874 4682 64% 14 92513 766 14%
c W 22.80 725 22 11 904 21009 5300 64% 14 92513 766 14%
c - 23.51 725 22 12 1033 23476 5326 64% 14 92513 766 14%
c } 24.05 725 22 12 1129 25284 6570 64% 14 92513 766 14%
c 1 24.05 725 22 12 1129 25284 6570 64% 14 92513 766 14%
c 
c --- [ writing output ] -----------------------------------------------------
c 
c writing simplified CNF to DIMACS file 'simp/12.cubes197.adj.simp1'
c * 24.05 725 22 12 1129 25284 6570 64% 14 92513 766 14%
c opening file to write 'simp/12.cubes197.adj.simp1'
c writing 'p cnf 5320 92513' header
c closing file 'simp/12.cubes197.adj.simp1'
c after writing 28883489 bytes 27.5 MB
c wrote 92513 clauses in 0.22 seconds process time
c 
c --- [ writing extension ] --------------------------------------------------
c 
c writing extension stack to 'simp/12.cubes197.adj.ext1'
c opening file to write 'simp/12.cubes197.adj.ext1'
c closing file 'simp/12.cubes197.adj.ext1'
c after writing 166707 bytes 0.2 MB
c wrote 7597 witnesses in 0.00 seconds process time
c 
c --- [ result ] -------------------------------------------------------------
c 
s SATISFIABLE
c 
c --- [ run-time profiling ] -------------------------------------------------
c 
c process time taken by individual solving procedures
c (percentage relative to process time for solving)
c 
c        12.97   84.17% search
c         9.78   63.46% unstable
c         8.65   56.12% parse
c         2.54   16.50% stable
c         2.44   15.83% simplify
c         0.90    5.86% probe
c         0.68    4.41% vivify
c         0.52    3.39% lucky
c         0.41    2.63% elim
c         0.15    0.99% subsume
c         0.13    0.82% walk
c         0.04    0.23% ternary
c   =================================
c        15.40   63.47% solve
c 
c last line shows process time for solving
c (percentage relative to total process time)
c 
c --- [ statistics ] ---------------------------------------------------------
c 
c chronological:              6017        23.80 %  of conflicts
c conflicts:                 25284      1641.40    per second
c decisions:                 69993      4543.83    per second
c eliminated:                 2943        55.32 %  of all variables
c fixed:                      1598        30.04 %  of all variables
c learned:                   24652        97.50 %  per conflict
c learned_lits:            3098440       100.00 %  learned literals
c minimized:                     0         0.00 %  learned literals
c shrunken:                1645807        53.12 %  learned literals
c minishrunken:             260126         8.40 %  learned literals
c propagations:            4367713         0.28 M  per second
c reduced:                   10248        40.53 %  per conflict
c rephased:                      6      4214.00    interval
c restarts:                   1129        22.40    interval
c stabilizing:                   2        39.55 %  of conflicts
c substituted:                  13         0.24 %  of all variables
c subsumed:                  10075         0.50 %  of all clauses
c strengthened:               2244         0.11 %  of all clauses
c ternary:                    3394         0.58 %  of resolved
c vivified:                    245         0.01 %  of all clauses
c walked:                        1     25284.00    interval
c weakened:                   5999         2.91    average size
c 
c seconds are measured in process time for solving
c 
c --- [ resources ] ----------------------------------------------------------
c 
c total process time since initialization:        24.27    seconds
c total real time since initialization:           24.33    seconds
c maximum resident set size of process:          753.45    MB
c 
c --- [ shutting down ] ------------------------------------------------------
c 
c exit 10
WARNING! DIMACS header mismatch: wrong number of variables.
============================[ Problem Statistics ]=============================
|                                                                             |
|  Number of variables:          2925                                         |
|  Number of clauses:           92513                                         |
|  Parse time:                   0.40 s                                       |
|  Simplification time:          0.01 s                                       |
|                                                                             |
============================[ Search Statistics ]====================================================
| Conflicts |          ORIGINAL         |          LEARNT          | Num Sols |      SUBGRAPHS      |
|           |    Vars  Clauses Literals |    Limit  Clauses Lit/Cl |          | Canonical Noncanon. |
=====================================================================================================
|       100 |    2833    92513  6654659 |     2000      100     66 |        0 |        16         0 |
|       276 |    2833    92539  6655184 |     2000      276     55 |        0 |        31        26 |
|       516 |    2833    92554  6655627 |     2000      516     48 |        0 |        65        41 |
|       885 |    2833    92586  6656668 |     2000      885     51 |        0 |       101        73 |
|      1418 |    2833    92613  6657332 |     2000     1418     55 |        0 |       131       100 |
|      2209 |    2833    92645  6657990 |     3601     1210     35 |        0 |       154       132 |
|      3372 |    2833    92669  6658417 |     3601     2373     50 |        0 |       233       156 |
|      5149 |    2833    92738  6659609 |     5001     2350     38 |        0 |       283       225 |
|      8188 |    2833    93215  6666123 |     6301     2889     32 |        0 |       394       702 |
|     12381 |    2833    93564  6671669 |     7557     3938     35 |        0 |       504      1051 |
|     18238 |    2833    93655  6673733 |     8787     6025     44 |        0 |       623      1142 |
|     27099 |    2833    93867  6677365 |    11203     5502     28 |        0 |       899      1354 |
|     40344 |    2833    94138  6683322 |    13610     6954     29 |        0 |      1273      1625 |
|     60089 |    2833    94422  6689543 |    16001    12490     45 |        0 |      1718      1909 |
|     90086 |    2833    95227  6702401 |    19610    16696     47 |        0 |      2427      2714 |
|    134958 |    2818    95103  6698654 |    24413    18308     42 |        0 |      3203      3797 |
|    201538 |    2818    95999  6711500 |    30399    18337     33 |        0 |      4168      4693 |
=====================================================================================================
Number of solutions   : 0
Canonical subgraphs   : 5190           (166 /sec)
          order  3    : 1              (166667 /sec)
          order  4    : 1              (500000 /sec)
          order  5    : 1              (250000 /sec)
          order  6    : 1              (55556 /sec)
          order  7    : 2              (9901 /sec)
          order  8    : 6              (2575 /sec)
          order  9    : 24             (766 /sec)
          order 10    : 102            (386 /sec)
          order 11    : 278            (266 /sec)
          order 12    : 1092           (212 /sec)
          order 13    : 2366           (164 /sec)
          order 14    : 881            (142 /sec)
          order 15    : 354            (105 /sec)
          order 16    : 53             (98 /sec)
          order 17    : 7              (104 /sec)
          order 18    : 7              (118 /sec)
          order 19    : 7              (111 /sec)
          order 20    : 7              (105 /sec)
          order 21    : 0              (-nan /sec)
Noncanonical subgraphs: 6423           (3157 /sec)
          order  3    : 0              (-nan /sec)
          order  4    : 0              (-nan /sec)
          order  5    : 0              (-nan /sec)
          order  6    : 0              (-nan /sec)
          order  7    : 0              (-nan /sec)
          order  8    : 0              (-nan /sec)
          order  9    : 0              (-nan /sec)
          order 10    : 0              (-nan /sec)
          order 11    : 0              (-nan /sec)
          order 12    : 0              (-nan /sec)
          order 13    : 4618           (9075 /sec)
          order 14    : 1692           (1281 /sec)
          order 15    : 105            (821 /sec)
          order 16    : 1              (144 /sec)
          order 17    : 0              (-nan /sec)
          order 18    : 0              (-nan /sec)
          order 19    : 0              (-nan /sec)
          order 20    : 0              (-nan /sec)
Canonicity checking   : 31.2944 s
Noncanonicity checking: 2.03471 s
Total canonicity time : 33.3291 s
database reductions   : 26
restarts              : 605
conflicts             : 257908         (3194 /sec)
decisions             : 354424         (0.00 % random) (4390 /sec)
propagations          : 12753693       (157954 /sec)
conflict literals     : 20975148       (51.42 % deleted)
actual reward         : 0.261570
Memory used           : 92.00 MB
CPU time              : 80.7433 s

UNSATISFIABLE
